p tw 256 3840
0 1
0 2
0 3
0 4
0 5
0 6
0 7
0 8
0 9
0 10
0 11
0 12
0 13
0 14
0 15
0 29
0 52
0 73
0 88
0 89
0 90
0 91
0 92
0 93
0 94
0 95
0 96
0 97
0 98
0 99
1 2
1 3
1 4
1 5
1 6
1 7
1 8
1 9
1 10
1 11
1 12
1 13
1 14
1 15
1 28
1 53
1 72
1 102
1 113
1 114
1 115
1 116
1 117
1 118
1 119
1 120
1 121
1 122
1 123
2 3
2 4
2 5
2 6
2 7
2 8
2 9
2 10
2 11
2 12
2 13
2 14
2 15
2 31
2 49
2 75
2 112
2 131
2 146
2 172
2 190
2 195
2 215
2 223
2 228
2 241
2 245
2 253
3 4
3 5
3 6
3 7
3 8
3 9
3 10
3 11
3 12
3 13
3 14
3 15
3 30
3 51
3 74
3 103
3 130
3 149
3 170
3 188
3 196
3 214
3 225
3 232
3 239
3 244
3 252
4 5
4 6
4 7
4 8
4 9
4 10
4 11
4 12
4 13
4 14
4 15
4 25
4 56
4 63
4 105
4 134
4 147
4 168
4 176
4 177
4 178
4 179
4 180
4 181
4 182
4 183
5 6
5 7
5 8
5 9
5 10
5 11
5 12
5 13
5 14
5 15
5 21
5 57
5 71
5 107
5 129
5 156
5 175
5 184
5 199
5 219
5 227
5 231
5 235
5 248
5 254
6 7
6 8
6 9
6 10
6 11
6 12
6 13
6 14
6 15
6 24
6 46
6 61
6 104
6 133
6 148
6 167
6 191
6 194
6 217
6 224
6 234
6 238
6 242
6 255
7 8
7 9
7 10
7 11
7 12
7 13
7 14
7 15
7 18
7 60
7 70
7 108
7 128
7 151
7 174
7 185
7 197
7 218
7 222
7 230
7 236
7 247
7 251
8 9
8 10
8 11
8 12
8 13
8 14
8 15
8 27
8 54
8 66
8 101
8 135
8 150
8 169
8 192
8 193
8 216
8 226
8 233
8 240
8 243
8 250
9 10
9 11
9 12
9 13
9 14
9 15
9 26
9 55
9 65
9 76
9 77
9 78
9 79
9 80
9 81
9 82
9 83
9 84
9 85
9 86
9 87
10 11
10 12
10 13
10 14
10 15
10 20
10 58
10 68
10 106
10 124
10 155
10 157
10 158
10 159
10 160
10 161
10 162
10 163
10 164
10 165
11 12
11 13
11 14
11 15
11 23
11 32
11 33
11 34
11 35
11 36
11 37
11 38
11 39
11 40
11 41
11 42
11 43
11 44
11 45
12 13
12 14
12 15
12 22
12 47
12 69
12 100
12 132
12 136
12 137
12 138
12 139
12 140
12 141
12 142
12 143
12 144
12 145
13 14
13 15
13 17
13 48
13 67
13 111
13 125
13 154
13 166
13 189
13 201
13 202
13 203
13 204
13 205
13 206
13 207
14 15
14 19
14 59
14 64
14 109
14 127
14 152
14 173
14 186
14 198
14 220
14 221
14 229
14 237
14 246
14 249
15 16
15 50
15 62
15 110
15 126
15 153
15 171
15 187
15 200
15 208
15 209
15 210
15 211
15 212
15 213
16 17
16 18
16 19
16 20
16 21
16 22
16 23
16 24
16 25
16 26
16 27
16 28
16 29
16 30
16 31
16 50
16 62
16 110
16 126
16 153
16 171
16 187
16 200
16 208
16 209
16 210
16 211
16 212
16 213
17 18
17 19
17 20
17 21
17 22
17 23
17 24
17 25
17 26
17 27
17 28
17 29
17 30
17 31
17 48
17 67
17 111
17 125
17 154
17 166
17 189
17 201
17 202
17 203
17 204
17 205
17 206
17 207
18 19
18 20
18 21
18 22
18 23
18 24
18 25
18 26
18 27
18 28
18 29
18 30
18 31
18 60
18 70
18 108
18 128
18 151
18 174
18 185
18 197
18 218
18 222
18 230
18 236
18 247
18 251
19 20
19 21
19 22
19 23
19 24
19 25
19 26
19 27
19 28
19 29
19 30
19 31
19 59
19 64
19 109
19 127
19 152
19 173
19 186
19 198
19 220
19 221
19 229
19 237
19 246
19 249
20 21
20 22
20 23
20 24
20 25
20 26
20 27
20 28
20 29
20 30
20 31
20 58
20 68
20 106
20 124
20 155
20 157
20 158
20 159
20 160
20 161
20 162
20 163
20 164
20 165
21 22
21 23
21 24
21 25
21 26
21 27
21 28
21 29
21 30
21 31
21 57
21 71
21 107
21 129
21 156
21 175
21 184
21 199
21 219
21 227
21 231
21 235
21 248
21 254
22 23
22 24
22 25
22 26
22 27
22 28
22 29
22 30
22 31
22 47
22 69
22 100
22 132
22 136
22 137
22 138
22 139
22 140
22 141
22 142
22 143
22 144
22 145
23 24
23 25
23 26
23 27
23 28
23 29
23 30
23 31
23 32
23 33
23 34
23 35
23 36
23 37
23 38
23 39
23 40
23 41
23 42
23 43
23 44
23 45
24 25
24 26
24 27
24 28
24 29
24 30
24 31
24 46
24 61
24 104
24 133
24 148
24 167
24 191
24 194
24 217
24 224
24 234
24 238
24 242
24 255
25 26
25 27
25 28
25 29
25 30
25 31
25 56
25 63
25 105
25 134
25 147
25 168
25 176
25 177
25 178
25 179
25 180
25 181
25 182
25 183
26 27
26 28
26 29
26 30
26 31
26 55
26 65
26 76
26 77
26 78
26 79
26 80
26 81
26 82
26 83
26 84
26 85
26 86
26 87
27 28
27 29
27 30
27 31
27 54
27 66
27 101
27 135
27 150
27 169
27 192
27 193
27 216
27 226
27 233
27 240
27 243
27 250
28 29
28 30
28 31
28 53
28 72
28 102
28 113
28 114
28 115
28 116
28 117
28 118
28 119
28 120
28 121
28 122
28 123
29 30
29 31
29 52
29 73
29 88
29 89
29 90
29 91
29 92
29 93
29 94
29 95
29 96
29 97
29 98
29 99
30 31
30 51
30 74
30 103
30 130
30 149
30 170
30 188
30 196
30 214
30 225
30 232
30 239
30 244
30 252
31 49
31 75
31 112
31 131
31 146
31 172
31 190
31 195
31 215
31 223
31 228
31 241
31 245
31 253
32 33
32 34
32 35
32 36
32 37
32 38
32 39
32 40
32 41
32 42
32 43
32 44
32 45
32 87
32 97
32 121
32 137
32 160
32 183
32 184
32 185
32 186
32 187
32 188
32 189
32 190
32 191
32 192
33 34
33 35
33 36
33 37
33 38
33 39
33 40
33 41
33 42
33 43
33 44
33 45
33 79
33 89
33 115
33 138
33 165
33 176
33 206
33 212
33 242
33 243
33 244
33 245
33 246
33 247
33 248
34 35
34 36
34 37
34 38
34 39
34 40
34 41
34 42
34 43
34 44
34 45
34 76
34 92
34 113
34 139
34 163
34 177
34 193
34 194
34 195
34 196
34 197
34 198
34 199
34 200
34 201
35 36
35 37
35 38
35 39
35 40
35 41
35 42
35 43
35 44
35 45
35 78
35 90
35 116
35 136
35 158
35 178
35 203
35 208
35 235
35 236
35 237
35 238
35 239
35 240
35 241
36 37
36 38
36 39
36 40
36 41
36 42
36 43
36 44
36 45
36 46
36 47
36 48
36 49
36 50
36 51
36 52
36 53
36 54
36 55
36 56
36 57
36 58
36 59
36 60
37 38
37 39
37 40
37 41
37 42
37 43
37 44
37 45
37 80
37 91
37 117
37 141
37 146
37 147
37 148
37 149
37 150
37 151
37 152
37 153
37 154
37 155
37 156
38 39
38 40
38 41
38 42
38 43
38 44
38 45
38 81
38 95
38 119
38 144
38 164
38 180
38 202
38 209
38 221
38 222
38 223
38 224
38 225
38 226
38 227
39 40
39 41
39 42
39 43
39 44
39 45
39 83
39 94
39 100
39 101
39 102
39 103
39 104
39 105
39 106
39 107
39 108
39 109
39 110
39 111
39 112
40 41
40 42
40 43
40 44
40 45
40 84
40 98
40 122
40 140
40 161
40 166
40 167
40 168
40 169
40 170
40 171
40 172
40 173
40 174
40 175
41 42
41 43
41 44
41 45
41 61
41 62
41 63
41 64
41 65
41 66
41 67
41 68
41 69
41 70
41 71
41 72
41 73
41 74
41 75
42 43
42 44
42 45
42 82
42 93
42 118
42 143
42 159
42 181
42 204
42 211
42 228
42 229
42 230
42 231
42 232
42 233
42 234
43 44
43 45
43 86
43 99
43 123
43 124
43 125
43 126
43 127
43 128
43 129
43 130
43 131
43 132
43 133
43 134
43 135
44 45
44 77
44 88
44 114
44 142
44 157
44 179
44 205
44 210
44 249
44 250
44 251
44 252
44 253
44 254
44 255
45 85
45 96
45 120
45 145
45 162
45 182
45 207
45 213
45 214
45 215
45 216
45 217
45 218
45 219
45 220
46 47
46 48
46 49
46 50
46 51
46 52
46 53
46 54
46 55
46 56
46 57
46 58
46 59
46 60
46 61
46 104
46 133
46 148
46 167
46 191
46 194
46 217
46 224
46 234
46 238
46 242
46 255
47 48
47 49
47 50
47 51
47 52
47 53
47 54
47 55
47 56
47 57
47 58
47 59
47 60
47 69
47 100
47 132
47 136
47 137
47 138
47 139
47 140
47 141
47 142
47 143
47 144
47 145
48 49
48 50
48 51
48 52
48 53
48 54
48 55
48 56
48 57
48 58
48 59
48 60
48 67
48 111
48 125
48 154
48 166
48 189
48 201
48 202
48 203
48 204
48 205
48 206
48 207
49 50
49 51
49 52
49 53
49 54
49 55
49 56
49 57
49 58
49 59
49 60
49 75
49 112
49 131
49 146
49 172
49 190
49 195
49 215
49 223
49 228
49 241
49 245
49 253
50 51
50 52
50 53
50 54
50 55
50 56
50 57
50 58
50 59
50 60
50 62
50 110
50 126
50 153
50 171
50 187
50 200
50 208
50 209
50 210
50 211
50 212
50 213
51 52
51 53
51 54
51 55
51 56
51 57
51 58
51 59
51 60
51 74
51 103
51 130
51 149
51 170
51 188
51 196
51 214
51 225
51 232
51 239
51 244
51 252
52 53
52 54
52 55
52 56
52 57
52 58
52 59
52 60
52 73
52 88
52 89
52 90
52 91
52 92
52 93
52 94
52 95
52 96
52 97
52 98
52 99
53 54
53 55
53 56
53 57
53 58
53 59
53 60
53 72
53 102
53 113
53 114
53 115
53 116
53 117
53 118
53 119
53 120
53 121
53 122
53 123
54 55
54 56
54 57
54 58
54 59
54 60
54 66
54 101
54 135
54 150
54 169
54 192
54 193
54 216
54 226
54 233
54 240
54 243
54 250
55 56
55 57
55 58
55 59
55 60
55 65
55 76
55 77
55 78
55 79
55 80
55 81
55 82
55 83
55 84
55 85
55 86
55 87
56 57
56 58
56 59
56 60
56 63
56 105
56 134
56 147
56 168
56 176
56 177
56 178
56 179
56 180
56 181
56 182
56 183
57 58
57 59
57 60
57 71
57 107
57 129
57 156
57 175
57 184
57 199
57 219
57 227
57 231
57 235
57 248
57 254
58 59
58 60
58 68
58 106
58 124
58 155
58 157
58 158
58 159
58 160
58 161
58 162
58 163
58 164
58 165
59 60
59 64
59 109
59 127
59 152
59 173
59 186
59 198
59 220
59 221
59 229
59 237
59 246
59 249
60 70
60 108
60 128
60 151
60 174
60 185
60 197
60 218
60 222
60 230
60 236
60 247
60 251
61 62
61 63
61 64
61 65
61 66
61 67
61 68
61 69
61 70
61 71
61 72
61 73
61 74
61 75
61 104
61 133
61 148
61 167
61 191
61 194
61 217
61 224
61 234
61 238
61 242
61 255
62 63
62 64
62 65
62 66
62 67
62 68
62 69
62 70
62 71
62 72
62 73
62 74
62 75
62 110
62 126
62 153
62 171
62 187
62 200
62 208
62 209
62 210
62 211
62 212
62 213
63 64
63 65
63 66
63 67
63 68
63 69
63 70
63 71
63 72
63 73
63 74
63 75
63 105
63 134
63 147
63 168
63 176
63 177
63 178
63 179
63 180
63 181
63 182
63 183
64 65
64 66
64 67
64 68
64 69
64 70
64 71
64 72
64 73
64 74
64 75
64 109
64 127
64 152
64 173
64 186
64 198
64 220
64 221
64 229
64 237
64 246
64 249
65 66
65 67
65 68
65 69
65 70
65 71
65 72
65 73
65 74
65 75
65 76
65 77
65 78
65 79
65 80
65 81
65 82
65 83
65 84
65 85
65 86
65 87
66 67
66 68
66 69
66 70
66 71
66 72
66 73
66 74
66 75
66 101
66 135
66 150
66 169
66 192
66 193
66 216
66 226
66 233
66 240
66 243
66 250
67 68
67 69
67 70
67 71
67 72
67 73
67 74
67 75
67 111
67 125
67 154
67 166
67 189
67 201
67 202
67 203
67 204
67 205
67 206
67 207
68 69
68 70
68 71
68 72
68 73
68 74
68 75
68 106
68 124
68 155
68 157
68 158
68 159
68 160
68 161
68 162
68 163
68 164
68 165
69 70
69 71
69 72
69 73
69 74
69 75
69 100
69 132
69 136
69 137
69 138
69 139
69 140
69 141
69 142
69 143
69 144
69 145
70 71
70 72
70 73
70 74
70 75
70 108
70 128
70 151
70 174
70 185
70 197
70 218
70 222
70 230
70 236
70 247
70 251
71 72
71 73
71 74
71 75
71 107
71 129
71 156
71 175
71 184
71 199
71 219
71 227
71 231
71 235
71 248
71 254
72 73
72 74
72 75
72 102
72 113
72 114
72 115
72 116
72 117
72 118
72 119
72 120
72 121
72 122
72 123
73 74
73 75
73 88
73 89
73 90
73 91
73 92
73 93
73 94
73 95
73 96
73 97
73 98
73 99
74 75
74 103
74 130
74 149
74 170
74 188
74 196
74 214
74 225
74 232
74 239
74 244
74 252
75 112
75 131
75 146
75 172
75 190
75 195
75 215
75 223
75 228
75 241
75 245
75 253
76 77
76 78
76 79
76 80
76 81
76 82
76 83
76 84
76 85
76 86
76 87
76 92
76 113
76 139
76 163
76 177
76 193
76 194
76 195
76 196
76 197
76 198
76 199
76 200
76 201
77 78
77 79
77 80
77 81
77 82
77 83
77 84
77 85
77 86
77 87
77 88
77 114
77 142
77 157
77 179
77 205
77 210
77 249
77 250
77 251
77 252
77 253
77 254
77 255
78 79
78 80
78 81
78 82
78 83
78 84
78 85
78 86
78 87
78 90
78 116
78 136
78 158
78 178
78 203
78 208
78 235
78 236
78 237
78 238
78 239
78 240
78 241
79 80
79 81
79 82
79 83
79 84
79 85
79 86
79 87
79 89
79 115
79 138
79 165
79 176
79 206
79 212
79 242
79 243
79 244
79 245
79 246
79 247
79 248
80 81
80 82
80 83
80 84
80 85
80 86
80 87
80 91
80 117
80 141
80 146
80 147
80 148
80 149
80 150
80 151
80 152
80 153
80 154
80 155
80 156
81 82
81 83
81 84
81 85
81 86
81 87
81 95
81 119
81 144
81 164
81 180
81 202
81 209
81 221
81 222
81 223
81 224
81 225
81 226
81 227
82 83
82 84
82 85
82 86
82 87
82 93
82 118
82 143
82 159
82 181
82 204
82 211
82 228
82 229
82 230
82 231
82 232
82 233
82 234
83 84
83 85
83 86
83 87
83 94
83 100
83 101
83 102
83 103
83 104
83 105
83 106
83 107
83 108
83 109
83 110
83 111
83 112
84 85
84 86
84 87
84 98
84 122
84 140
84 161
84 166
84 167
84 168
84 169
84 170
84 171
84 172
84 173
84 174
84 175
85 86
85 87
85 96
85 120
85 145
85 162
85 182
85 207
85 213
85 214
85 215
85 216
85 217
85 218
85 219
85 220
86 87
86 99
86 123
86 124
86 125
86 126
86 127
86 128
86 129
86 130
86 131
86 132
86 133
86 134
86 135
87 97
87 121
87 137
87 160
87 183
87 184
87 185
87 186
87 187
87 188
87 189
87 190
87 191
87 192
88 89
88 90
88 91
88 92
88 93
88 94
88 95
88 96
88 97
88 98
88 99
88 114
88 142
88 157
88 179
88 205
88 210
88 249
88 250
88 251
88 252
88 253
88 254
88 255
89 90
89 91
89 92
89 93
89 94
89 95
89 96
89 97
89 98
89 99
89 115
89 138
89 165
89 176
89 206
89 212
89 242
89 243
89 244
89 245
89 246
89 247
89 248
90 91
90 92
90 93
90 94
90 95
90 96
90 97
90 98
90 99
90 116
90 136
90 158
90 178
90 203
90 208
90 235
90 236
90 237
90 238
90 239
90 240
90 241
91 92
91 93
91 94
91 95
91 96
91 97
91 98
91 99
91 117
91 141
91 146
91 147
91 148
91 149
91 150
91 151
91 152
91 153
91 154
91 155
91 156
92 93
92 94
92 95
92 96
92 97
92 98
92 99
92 113
92 139
92 163
92 177
92 193
92 194
92 195
92 196
92 197
92 198
92 199
92 200
92 201
93 94
93 95
93 96
93 97
93 98
93 99
93 118
93 143
93 159
93 181
93 204
93 211
93 228
93 229
93 230
93 231
93 232
93 233
93 234
94 95
94 96
94 97
94 98
94 99
94 100
94 101
94 102
94 103
94 104
94 105
94 106
94 107
94 108
94 109
94 110
94 111
94 112
95 96
95 97
95 98
95 99
95 119
95 144
95 164
95 180
95 202
95 209
95 221
95 222
95 223
95 224
95 225
95 226
95 227
96 97
96 98
96 99
96 120
96 145
96 162
96 182
96 207
96 213
96 214
96 215
96 216
96 217
96 218
96 219
96 220
97 98
97 99
97 121
97 137
97 160
97 183
97 184
97 185
97 186
97 187
97 188
97 189
97 190
97 191
97 192
98 99
98 122
98 140
98 161
98 166
98 167
98 168
98 169
98 170
98 171
98 172
98 173
98 174
98 175
99 123
99 124
99 125
99 126
99 127
99 128
99 129
99 130
99 131
99 132
99 133
99 134
99 135
100 101
100 102
100 103
100 104
100 105
100 106
100 107
100 108
100 109
100 110
100 111
100 112
100 132
100 136
100 137
100 138
100 139
100 140
100 141
100 142
100 143
100 144
100 145
101 102
101 103
101 104
101 105
101 106
101 107
101 108
101 109
101 110
101 111
101 112
101 135
101 150
101 169
101 192
101 193
101 216
101 226
101 233
101 240
101 243
101 250
102 103
102 104
102 105
102 106
102 107
102 108
102 109
102 110
102 111
102 112
102 113
102 114
102 115
102 116
102 117
102 118
102 119
102 120
102 121
102 122
102 123
103 104
103 105
103 106
103 107
103 108
103 109
103 110
103 111
103 112
103 130
103 149
103 170
103 188
103 196
103 214
103 225
103 232
103 239
103 244
103 252
104 105
104 106
104 107
104 108
104 109
104 110
104 111
104 112
104 133
104 148
104 167
104 191
104 194
104 217
104 224
104 234
104 238
104 242
104 255
105 106
105 107
105 108
105 109
105 110
105 111
105 112
105 134
105 147
105 168
105 176
105 177
105 178
105 179
105 180
105 181
105 182
105 183
106 107
106 108
106 109
106 110
106 111
106 112
106 124
106 155
106 157
106 158
106 159
106 160
106 161
106 162
106 163
106 164
106 165
107 108
107 109
107 110
107 111
107 112
107 129
107 156
107 175
107 184
107 199
107 219
107 227
107 231
107 235
107 248
107 254
108 109
108 110
108 111
108 112
108 128
108 151
108 174
108 185
108 197
108 218
108 222
108 230
108 236
108 247
108 251
109 110
109 111
109 112
109 127
109 152
109 173
109 186
109 198
109 220
109 221
109 229
109 237
109 246
109 249
110 111
110 112
110 126
110 153
110 171
110 187
110 200
110 208
110 209
110 210
110 211
110 212
110 213
111 112
111 125
111 154
111 166
111 189
111 201
111 202
111 203
111 204
111 205
111 206
111 207
112 131
112 146
112 172
112 190
112 195
112 215
112 223
112 228
112 241
112 245
112 253
113 114
113 115
113 116
113 117
113 118
113 119
113 120
113 121
113 122
113 123
113 139
113 163
113 177
113 193
113 194
113 195
113 196
113 197
113 198
113 199
113 200
113 201
114 115
114 116
114 117
114 118
114 119
114 120
114 121
114 122
114 123
114 142
114 157
114 179
114 205
114 210
114 249
114 250
114 251
114 252
114 253
114 254
114 255
115 116
115 117
115 118
115 119
115 120
115 121
115 122
115 123
115 138
115 165
115 176
115 206
115 212
115 242
115 243
115 244
115 245
115 246
115 247
115 248
116 117
116 118
116 119
116 120
116 121
116 122
116 123
116 136
116 158
116 178
116 203
116 208
116 235
116 236
116 237
116 238
116 239
116 240
116 241
117 118
117 119
117 120
117 121
117 122
117 123
117 141
117 146
117 147
117 148
117 149
117 150
117 151
117 152
117 153
117 154
117 155
117 156
118 119
118 120
118 121
118 122
118 123
118 143
118 159
118 181
118 204
118 211
118 228
118 229
118 230
118 231
118 232
118 233
118 234
119 120
119 121
119 122
119 123
119 144
119 164
119 180
119 202
119 209
119 221
119 222
119 223
119 224
119 225
119 226
119 227
120 121
120 122
120 123
120 145
120 162
120 182
120 207
120 213
120 214
120 215
120 216
120 217
120 218
120 219
120 220
121 122
121 123
121 137
121 160
121 183
121 184
121 185
121 186
121 187
121 188
121 189
121 190
121 191
121 192
122 123
122 140
122 161
122 166
122 167
122 168
122 169
122 170
122 171
122 172
122 173
122 174
122 175
123 124
123 125
123 126
123 127
123 128
123 129
123 130
123 131
123 132
123 133
123 134
123 135
124 125
124 126
124 127
124 128
124 129
124 130
124 131
124 132
124 133
124 134
124 135
124 155
124 157
124 158
124 159
124 160
124 161
124 162
124 163
124 164
124 165
125 126
125 127
125 128
125 129
125 130
125 131
125 132
125 133
125 134
125 135
125 154
125 166
125 189
125 201
125 202
125 203
125 204
125 205
125 206
125 207
126 127
126 128
126 129
126 130
126 131
126 132
126 133
126 134
126 135
126 153
126 171
126 187
126 200
126 208
126 209
126 210
126 211
126 212
126 213
127 128
127 129
127 130
127 131
127 132
127 133
127 134
127 135
127 152
127 173
127 186
127 198
127 220
127 221
127 229
127 237
127 246
127 249
128 129
128 130
128 131
128 132
128 133
128 134
128 135
128 151
128 174
128 185
128 197
128 218
128 222
128 230
128 236
128 247
128 251
129 130
129 131
129 132
129 133
129 134
129 135
129 156
129 175
129 184
129 199
129 219
129 227
129 231
129 235
129 248
129 254
130 131
130 132
130 133
130 134
130 135
130 149
130 170
130 188
130 196
130 214
130 225
130 232
130 239
130 244
130 252
131 132
131 133
131 134
131 135
131 146
131 172
131 190
131 195
131 215
131 223
131 228
131 241
131 245
131 253
132 133
132 134
132 135
132 136
132 137
132 138
132 139
132 140
132 141
132 142
132 143
132 144
132 145
133 134
133 135
133 148
133 167
133 191
133 194
133 217
133 224
133 234
133 238
133 242
133 255
134 135
134 147
134 168
134 176
134 177
134 178
134 179
134 180
134 181
134 182
134 183
135 150
135 169
135 192
135 193
135 216
135 226
135 233
135 240
135 243
135 250
136 137
136 138
136 139
136 140
136 141
136 142
136 143
136 144
136 145
136 158
136 178
136 203
136 208
136 235
136 236
136 237
136 238
136 239
136 240
136 241
137 138
137 139
137 140
137 141
137 142
137 143
137 144
137 145
137 160
137 183
137 184
137 185
137 186
137 187
137 188
137 189
137 190
137 191
137 192
138 139
138 140
138 141
138 142
138 143
138 144
138 145
138 165
138 176
138 206
138 212
138 242
138 243
138 244
138 245
138 246
138 247
138 248
139 140
139 141
139 142
139 143
139 144
139 145
139 163
139 177
139 193
139 194
139 195
139 196
139 197
139 198
139 199
139 200
139 201
140 141
140 142
140 143
140 144
140 145
140 161
140 166
140 167
140 168
140 169
140 170
140 171
140 172
140 173
140 174
140 175
141 142
141 143
141 144
141 145
141 146
141 147
141 148
141 149
141 150
141 151
141 152
141 153
141 154
141 155
141 156
142 143
142 144
142 145
142 157
142 179
142 205
142 210
142 249
142 250
142 251
142 252
142 253
142 254
142 255
143 144
143 145
143 159
143 181
143 204
143 211
143 228
143 229
143 230
143 231
143 232
143 233
143 234
144 145
144 164
144 180
144 202
144 209
144 221
144 222
144 223
144 224
144 225
144 226
144 227
145 162
145 182
145 207
145 213
145 214
145 215
145 216
145 217
145 218
145 219
145 220
146 147
146 148
146 149
146 150
146 151
146 152
146 153
146 154
146 155
146 156
146 172
146 190
146 195
146 215
146 223
146 228
146 241
146 245
146 253
147 148
147 149
147 150
147 151
147 152
147 153
147 154
147 155
147 156
147 168
147 176
147 177
147 178
147 179
147 180
147 181
147 182
147 183
148 149
148 150
148 151
148 152
148 153
148 154
148 155
148 156
148 167
148 191
148 194
148 217
148 224
148 234
148 238
148 242
148 255
149 150
149 151
149 152
149 153
149 154
149 155
149 156
149 170
149 188
149 196
149 214
149 225
149 232
149 239
149 244
149 252
150 151
150 152
150 153
150 154
150 155
150 156
150 169
150 192
150 193
150 216
150 226
150 233
150 240
150 243
150 250
151 152
151 153
151 154
151 155
151 156
151 174
151 185
151 197
151 218
151 222
151 230
151 236
151 247
151 251
152 153
152 154
152 155
152 156
152 173
152 186
152 198
152 220
152 221
152 229
152 237
152 246
152 249
153 154
153 155
153 156
153 171
153 187
153 200
153 208
153 209
153 210
153 211
153 212
153 213
154 155
154 156
154 166
154 189
154 201
154 202
154 203
154 204
154 205
154 206
154 207
155 156
155 157
155 158
155 159
155 160
155 161
155 162
155 163
155 164
155 165
156 175
156 184
156 199
156 219
156 227
156 231
156 235
156 248
156 254
157 158
157 159
157 160
157 161
157 162
157 163
157 164
157 165
157 179
157 205
157 210
157 249
157 250
157 251
157 252
157 253
157 254
157 255
158 159
158 160
158 161
158 162
158 163
158 164
158 165
158 178
158 203
158 208
158 235
158 236
158 237
158 238
158 239
158 240
158 241
159 160
159 161
159 162
159 163
159 164
159 165
159 181
159 204
159 211
159 228
159 229
159 230
159 231
159 232
159 233
159 234
160 161
160 162
160 163
160 164
160 165
160 183
160 184
160 185
160 186
160 187
160 188
160 189
160 190
160 191
160 192
161 162
161 163
161 164
161 165
161 166
161 167
161 168
161 169
161 170
161 171
161 172
161 173
161 174
161 175
162 163
162 164
162 165
162 182
162 207
162 213
162 214
162 215
162 216
162 217
162 218
162 219
162 220
163 164
163 165
163 177
163 193
163 194
163 195
163 196
163 197
163 198
163 199
163 200
163 201
164 165
164 180
164 202
164 209
164 221
164 222
164 223
164 224
164 225
164 226
164 227
165 176
165 206
165 212
165 242
165 243
165 244
165 245
165 246
165 247
165 248
166 167
166 168
166 169
166 170
166 171
166 172
166 173
166 174
166 175
166 189
166 201
166 202
166 203
166 204
166 205
166 206
166 207
167 168
167 169
167 170
167 171
167 172
167 173
167 174
167 175
167 191
167 194
167 217
167 224
167 234
167 238
167 242
167 255
168 169
168 170
168 171
168 172
168 173
168 174
168 175
168 176
168 177
168 178
168 179
168 180
168 181
168 182
168 183
169 170
169 171
169 172
169 173
169 174
169 175
169 192
169 193
169 216
169 226
169 233
169 240
169 243
169 250
170 171
170 172
170 173
170 174
170 175
170 188
170 196
170 214
170 225
170 232
170 239
170 244
170 252
171 172
171 173
171 174
171 175
171 187
171 200
171 208
171 209
171 210
171 211
171 212
171 213
172 173
172 174
172 175
172 190
172 195
172 215
172 223
172 228
172 241
172 245
172 253
173 174
173 175
173 186
173 198
173 220
173 221
173 229
173 237
173 246
173 249
174 175
174 185
174 197
174 218
174 222
174 230
174 236
174 247
174 251
175 184
175 199
175 219
175 227
175 231
175 235
175 248
175 254
176 177
176 178
176 179
176 180
176 181
176 182
176 183
176 206
176 212
176 242
176 243
176 244
176 245
176 246
176 247
176 248
177 178
177 179
177 180
177 181
177 182
177 183
177 193
177 194
177 195
177 196
177 197
177 198
177 199
177 200
177 201
178 179
178 180
178 181
178 182
178 183
178 203
178 208
178 235
178 236
178 237
178 238
178 239
178 240
178 241
179 180
179 181
179 182
179 183
179 205
179 210
179 249
179 250
179 251
179 252
179 253
179 254
179 255
180 181
180 182
180 183
180 202
180 209
180 221
180 222
180 223
180 224
180 225
180 226
180 227
181 182
181 183
181 204
181 211
181 228
181 229
181 230
181 231
181 232
181 233
181 234
182 183
182 207
182 213
182 214
182 215
182 216
182 217
182 218
182 219
182 220
183 184
183 185
183 186
183 187
183 188
183 189
183 190
183 191
183 192
184 185
184 186
184 187
184 188
184 189
184 190
184 191
184 192
184 199
184 219
184 227
184 231
184 235
184 248
184 254
185 186
185 187
185 188
185 189
185 190
185 191
185 192
185 197
185 218
185 222
185 230
185 236
185 247
185 251
186 187
186 188
186 189
186 190
186 191
186 192
186 198
186 220
186 221
186 229
186 237
186 246
186 249
187 188
187 189
187 190
187 191
187 192
187 200
187 208
187 209
187 210
187 211
187 212
187 213
188 189
188 190
188 191
188 192
188 196
188 214
188 225
188 232
188 239
188 244
188 252
189 190
189 191
189 192
189 201
189 202
189 203
189 204
189 205
189 206
189 207
190 191
190 192
190 195
190 215
190 223
190 228
190 241
190 245
190 253
191 192
191 194
191 217
191 224
191 234
191 238
191 242
191 255
192 193
192 216
192 226
192 233
192 240
192 243
192 250
193 194
193 195
193 196
193 197
193 198
193 199
193 200
193 201
193 216
193 226
193 233
193 240
193 243
193 250
194 195
194 196
194 197
194 198
194 199
194 200
194 201
194 217
194 224
194 234
194 238
194 242
194 255
195 196
195 197
195 198
195 199
195 200
195 201
195 215
195 223
195 228
195 241
195 245
195 253
196 197
196 198
196 199
196 200
196 201
196 214
196 225
196 232
196 239
196 244
196 252
197 198
197 199
197 200
197 201
197 218
197 222
197 230
197 236
197 247
197 251
198 199
198 200
198 201
198 220
198 221
198 229
198 237
198 246
198 249
199 200
199 201
199 219
199 227
199 231
199 235
199 248
199 254
200 201
200 208
200 209
200 210
200 211
200 212
200 213
201 202
201 203
201 204
201 205
201 206
201 207
202 203
202 204
202 205
202 206
202 207
202 209
202 221
202 222
202 223
202 224
202 225
202 226
202 227
203 204
203 205
203 206
203 207
203 208
203 235
203 236
203 237
203 238
203 239
203 240
203 241
204 205
204 206
204 207
204 211
204 228
204 229
204 230
204 231
204 232
204 233
204 234
205 206
205 207
205 210
205 249
205 250
205 251
205 252
205 253
205 254
205 255
206 207
206 212
206 242
206 243
206 244
206 245
206 246
206 247
206 248
207 213
207 214
207 215
207 216
207 217
207 218
207 219
207 220
208 209
208 210
208 211
208 212
208 213
208 235
208 236
208 237
208 238
208 239
208 240
208 241
209 210
209 211
209 212
209 213
209 221
209 222
209 223
209 224
209 225
209 226
209 227
210 211
210 212
210 213
210 249
210 250
210 251
210 252
210 253
210 254
210 255
211 212
211 213
211 228
211 229
211 230
211 231
211 232
211 233
211 234
212 213
212 242
212 243
212 244
212 245
212 246
212 247
212 248
213 214
213 215
213 216
213 217
213 218
213 219
213 220
214 215
214 216
214 217
214 218
214 219
214 220
214 225
214 232
214 239
214 244
214 252
215 216
215 217
215 218
215 219
215 220
215 223
215 228
215 241
215 245
215 253
216 217
216 218
216 219
216 220
216 226
216 233
216 240
216 243
216 250
217 218
217 219
217 220
217 224
217 234
217 238
217 242
217 255
218 219
218 220
218 222
218 230
218 236
218 247
218 251
219 220
219 227
219 231
219 235
219 248
219 254
220 221
220 229
220 237
220 246
220 249
221 222
221 223
221 224
221 225
221 226
221 227
221 229
221 237
221 246
221 249
222 223
222 224
222 225
222 226
222 227
222 230
222 236
222 247
222 251
223 224
223 225
223 226
223 227
223 228
223 241
223 245
223 253
224 225
224 226
224 227
224 234
224 238
224 242
224 255
225 226
225 227
225 232
225 239
225 244
225 252
226 227
226 233
226 240
226 243
226 250
227 231
227 235
227 248
227 254
228 229
228 230
228 231
228 232
228 233
228 234
228 241
228 245
228 253
229 230
229 231
229 232
229 233
229 234
229 237
229 246
229 249
230 231
230 232
230 233
230 234
230 236
230 247
230 251
231 232
231 233
231 234
231 235
231 248
231 254
232 233
232 234
232 239
232 244
232 252
233 234
233 240
233 243
233 250
234 238
234 242
234 255
235 236
235 237
235 238
235 239
235 240
235 241
235 248
235 254
236 237
236 238
236 239
236 240
236 241
236 247
236 251
237 238
237 239
237 240
237 241
237 246
237 249
238 239
238 240
238 241
238 242
238 255
239 240
239 241
239 244
239 252
240 241
240 243
240 250
241 245
241 253
242 243
242 244
242 245
242 246
242 247
242 248
242 255
243 244
243 245
243 246
243 247
243 248
243 250
244 245
244 246
244 247
244 248
244 252
245 246
245 247
245 248
245 253
246 247
246 248
246 249
247 248
247 251
248 254
249 250
249 251
249 252
249 253
249 254
249 255
250 251
250 252
250 253
250 254
250 255
251 252
251 253
251 254
251 255
252 253
252 254
252 255
253 254
253 255
254 255
